
Gurobi 8.1.1 (win64, Python) logging started 04/04/19 21:07:13

Academic license - for non-commercial use only

Gurobi 8.1.0 (mac64, Python) logging started Fri Apr  5 09:40:13 2019

Academic license - for non-commercial use only

Gurobi 8.1.0 (mac64, Python) logging started Fri Apr  5 15:07:08 2019

Academic license - for non-commercial use only
Optimize a model with 0 rows, 0 columns and 0 nonzeros
Coefficient statistics:
  Matrix range     [0e+00, 0e+00]
  Objective range  [0e+00, 0e+00]
  Bounds range     [0e+00, 0e+00]
  RHS range        [0e+00, 0e+00]
Presolve time: 0.01s
Presolve: All rows and columns removed
Iteration    Objective       Primal Inf.    Dual Inf.      Time
       0    0.0000000e+00   0.000000e+00   0.000000e+00      0s

Solved in 0 iterations and 0.01 seconds
Optimal objective  0.000000000e+00
Optimize a model with 0 rows, 0 columns and 0 nonzeros
Coefficient statistics:
  Matrix range     [0e+00, 0e+00]
  Objective range  [0e+00, 0e+00]
  Bounds range     [0e+00, 0e+00]
  RHS range        [0e+00, 0e+00]

Solved in 0 iterations and 0.01 seconds
Optimal objective  0.000000000e+00

Gurobi 8.1.0 (mac64, Python) logging started Fri Apr  5 15:15:39 2019

Academic license - for non-commercial use only

Gurobi 8.1.0 (mac64, Python) logging started Fri Apr  5 15:17:14 2019

Academic license - for non-commercial use only
Optimize a model with 106 rows, 21 columns and 2225 nonzeros
Coefficient statistics:
  Matrix range     [1e+00, 3e+03]
  Objective range  [1e+00, 1e+00]
  Bounds range     [1e+01, 1e+01]
  RHS range        [1e+00, 1e+00]
Presolve time: 0.01s
Presolved: 21 rows, 106 columns, 2225 nonzeros

Iteration    Objective       Primal Inf.    Dual Inf.      Time
       0    1.9110000e+03   0.000000e+00   5.250000e+00      0s
       1    1.7570000e+03   0.000000e+00   0.000000e+00      0s

Solved in 1 iterations and 0.01 seconds
Optimal objective  1.757000000e+03
